#######################################
### Exact MIP solver for the HHCRSP ###
#######################################
-- Instance file: new-instances/HHCRSP_300_60_71_1.6_C_C.txt
-- Max threads: 4
-- Time limit: 999999 seconds
-- Use initial solution: No
Trivial flow violations prevented generating 1174126 variables.
Version identifier: 20.1.0.0 | 2020-11-10 | 9bedb6d68
CPXPARAM_Threads                                 4
CPXPARAM_TimeLimit                               999999
Parallel mode: deterministic, using up to 4 threads for concurrent optimization:
 * Starting dual Simplex on 1 thread...
 * Starting Barrier on 3 threads...
Tried aggregator 1 time.
LP Presolve eliminated 44112 rows and 8914 columns.
Reduced LP has 1127924 rows, 1071125 columns, and 24828782 nonzeros.
Presolve time = 26.31 sec. (5496.70 ticks)
Symmetry aggregator did 1780196 additional substitutions.

Iteration log . . .
Iteration:     1   Dual objective     =             0.000000
Perturbation started.
Iteration:   909   Dual objective     =           213.000000
Removing perturbation.

Dual crossover.
  Dual:  Fixing 1246 variables.
     1245 DMoves:  Infeasibility  2.99504489e-12  Objective  2.32666667e+02
        0 DMoves:  Infeasibility  9.25755707e-13  Objective  2.32666667e+02
  Dual:  Pushed 27, exchanged 1219.
  Primal:  Fixing 855 variables.
      854 PMoves:  Infeasibility  8.60422844e-16  Objective  2.32666667e+02
        0 PMoves:  Infeasibility  3.35842465e-15  Objective  2.32666667e+02
  Primal:  Pushed 701, exchanged 154.

Dual simplex solved model.


Solution status from MIP model:
-- Processing time: 45.275 sec.
-- Memory used: 997.439 MB
-- Best bound: inf
-- Obj value: 232.667
-- Gap: inf%
-- Total distance: 698
-- Total tardiness: 0
-- Largest tardiness: 0
